(set-logic QF_SLIA)
(set-option :produce-models true)
(declare-const X String)
; Logger\w+gdvsotuqwsg\u{2f}dxt\.hd\dovplLogtraffbest\x2EbizAdToolsLoggedsidesearch\.dropspam\.com
(assert (str.in_re X (re.++ (str.to_re "Logger") (re.+ (re.union (re.range "0" "9") (re.range "A" "Z") (re.range "a" "z") (str.to_re "_"))) (str.to_re "gdvsotuqwsg/dxt.hd") (re.range "0" "9") (str.to_re "ovplLogtraffbest.bizAdToolsLoggedsidesearch.dropspam.com\u{0a}"))))
; (Mo(n(day)?)?|Tu(e(sday)?)?|We(d(nesday)?)?|Th(u(rsday)?)?|Fr(i(day)?)?|Sa(t(urday)?)?|Su(n(day)?)?)
(assert (str.in_re X (re.++ (re.union (re.++ (str.to_re "Mo") (re.opt (re.++ (str.to_re "n") (re.opt (str.to_re "day"))))) (re.++ (str.to_re "Tu") (re.opt (re.++ (str.to_re "e") (re.opt (str.to_re "sday"))))) (re.++ (str.to_re "We") (re.opt (re.++ (str.to_re "d") (re.opt (str.to_re "nesday"))))) (re.++ (str.to_re "Th") (re.opt (re.++ (str.to_re "u") (re.opt (str.to_re "rsday"))))) (re.++ (str.to_re "Fr") (re.opt (re.++ (str.to_re "i") (re.opt (str.to_re "day"))))) (re.++ (str.to_re "Sa") (re.opt (re.++ (str.to_re "t") (re.opt (str.to_re "urday"))))) (re.++ (str.to_re "Su") (re.opt (re.++ (str.to_re "n") (re.opt (str.to_re "day")))))) (str.to_re "\u{0a}"))))
; /\u{2e}aom([\?\u{5c}\u{2f}]|$)/smiU
(assert (str.in_re X (re.++ (str.to_re "/.aom") (re.union (str.to_re "?") (str.to_re "\u{5c}") (str.to_re "/")) (str.to_re "/smiU\u{0a}"))))
; ^[A-Za-z0-9](\.[\w\-]|[\w\-][\w\-])(\.[\w\-]|[\w\-]?[\w\-]){0,30}[\w\-]?@[A-Za-z0-9\-]{3,63}\.[a-zA-Z]{2,6}$
(assert (str.in_re X (re.++ (re.union (re.range "A" "Z") (re.range "a" "z") (re.range "0" "9")) (re.union (re.++ (str.to_re ".") (re.union (str.to_re "-") (re.range "0" "9") (re.range "A" "Z") (re.range "a" "z") (str.to_re "_"))) (re.++ (re.union (str.to_re "-") (re.range "0" "9") (re.range "A" "Z") (re.range "a" "z") (str.to_re "_")) (re.union (str.to_re "-") (re.range "0" "9") (re.range "A" "Z") (re.range "a" "z") (str.to_re "_")))) ((_ re.loop 0 30) (re.union (re.++ (str.to_re ".") (re.union (str.to_re "-") (re.range "0" "9") (re.range "A" "Z") (re.range "a" "z") (str.to_re "_"))) (re.++ (re.opt (re.union (str.to_re "-") (re.range "0" "9") (re.range "A" "Z") (re.range "a" "z") (str.to_re "_"))) (re.union (str.to_re "-") (re.range "0" "9") (re.range "A" "Z") (re.range "a" "z") (str.to_re "_"))))) (re.opt (re.union (str.to_re "-") (re.range "0" "9") (re.range "A" "Z") (re.range "a" "z") (str.to_re "_"))) (str.to_re "@") ((_ re.loop 3 63) (re.union (re.range "A" "Z") (re.range "a" "z") (re.range "0" "9") (str.to_re "-"))) (str.to_re ".") ((_ re.loop 2 6) (re.union (re.range "a" "z") (re.range "A" "Z"))) (str.to_re "\u{0a}"))))
(assert (< 200 (str.len X)))
(check-sat)
